77
0 6 48 70 41 8 21 67 43 56 
60 72 25 33 27 62 46 55 37 73 
1 65 28 18 36 10 14 17 63 57 
42 71 75 44 11 31 52 68 53 7 
23 76 19 61 69 64 30 35 15 38 
3 4 24 13 29 47 54 66 9 12 
2 16 45 39 51 5 58 59 34 26 
40 20 50 74 49 22 32 
